Please solve the following SAT Problem encoded in DIMACS format, only return a single solution assignment without explanations, if there is any: 
p cnf 10 45
-10 4 -9 0
4 8 -3 0
-2 -1 -9 0
7 4 6 0
8 1 5 0
6 -3 -9 0
8 7 5 0
2 -3 7 0
4 8 7 0
-3 -2 6 0
4 -10 -2 0
-3 -1 -10 0
-1 6 -3 0
-4 -9 -2 0
10 -1 -3 0
5 -3 -6 0
5 1 -10 0
6 -3 -1 0
10 -7 8 0
4 7 -10 0
4 -2 -3 0
-3 -10 5 0
6 7 4 0
-1 -10 7 0
5 4 -1 0
10 -9 -3 0
7 -1 -9 0
-9 8 -2 0
-2 -3 9 0
-8 -1 -2 0
6 -2 -10 0
6 7 -10 0
-2 -9 4 0
8 5 6 0
-2 5 -1 0
6 7 8 0
-1 -2 4 0
-8 4 -3 0
-3 -2 -6 0
-10 -1 -9 0
6 5 4 0
5 6 -8 0
-6 -2 5 0
4 -5 7 0
-9 4 7 0

